c Generated map
c Size: 12 * 12, weights in range: 1 to 10, walls: False, with ratio 0.0
c dim 3 of 5
c
p sp 144 264
c graph contains 144 nodes and 264 arcs
c
a 1 13 8
a 13 1 8
a 1 2 2
a 2 1 2
a 2 14 8
a 14 2 8
a 2 3 3
a 3 2 3
a 3 15 3
a 15 3 3
a 3 4 10
a 4 3 10
a 4 16 1
a 16 4 1
a 4 5 9
a 5 4 9
a 5 17 7
a 17 5 7
a 5 6 10
a 6 5 10
a 6 18 8
a 18 6 8
a 6 7 3
a 7 6 3
a 7 19 3
a 19 7 3
a 7 8 4
a 8 7 4
a 8 20 8
a 20 8 8
a 8 9 3
a 9 8 3
a 9 21 7
a 21 9 7
a 9 10 2
a 10 9 2
a 10 22 6
a 22 10 6
a 10 11 7
a 11 10 7
a 11 23 9
a 23 11 9
a 11 12 1
a 12 11 1
a 12 24 1
a 24 12 1
a 13 25 1
a 25 13 1
a 13 14 6
a 14 13 6
a 14 26 9
a 26 14 9
a 14 15 6
a 15 14 6
a 15 27 2
a 27 15 2
a 15 16 9
a 16 15 9
a 16 28 7
a 28 16 7
a 16 17 8
a 17 16 8
a 17 29 5
a 29 17 5
a 17 18 2
a 18 17 2
a 18 30 5
a 30 18 5
a 18 19 7
a 19 18 7
a 19 31 7
a 31 19 7
a 19 20 10
a 20 19 10
a 20 32 6
a 32 20 6
a 20 21 7
a 21 20 7
a 21 33 10
a 33 21 10
a 21 22 8
a 22 21 8
a 22 34 3
a 34 22 3
a 22 23 8
a 23 22 8
a 23 35 7
a 35 23 7
a 23 24 5
a 24 23 5
a 24 36 8
a 36 24 8
a 25 37 5
a 37 25 5
a 25 26 3
a 26 25 3
a 26 38 7
a 38 26 7
a 26 27 1
a 27 26 1
a 27 39 4
a 39 27 4
a 27 28 8
a 28 27 8
a 28 40 1
a 40 28 1
a 28 29 7
a 29 28 7
a 29 41 10
a 41 29 10
a 29 30 1
a 30 29 1
a 30 42 5
a 42 30 5
a 30 31 1
a 31 30 1
a 31 43 8
a 43 31 8
a 31 32 4
a 32 31 4
a 32 44 7
a 44 32 7
a 32 33 3
a 33 32 3
a 33 45 8
a 45 33 8
a 33 34 1
a 34 33 1
a 34 46 2
a 46 34 2
a 34 35 4
a 35 34 4
a 35 47 3
a 47 35 3
a 35 36 9
a 36 35 9
a 36 48 4
a 48 36 4
a 37 49 5
a 49 37 5
a 37 38 9
a 38 37 9
a 38 50 7
a 50 38 7
a 38 39 2
a 39 38 2
a 39 51 6
a 51 39 6
a 39 40 6
a 40 39 6
a 40 52 1
a 52 40 1
a 40 41 6
a 41 40 6
a 41 53 10
a 53 41 10
a 41 42 9
a 42 41 9
a 42 54 9
a 54 42 9
a 42 43 4
a 43 42 4
a 43 55 7
a 55 43 7
a 43 44 3
a 44 43 3
a 44 56 5
a 56 44 5
a 44 45 2
a 45 44 2
a 45 57 5
a 57 45 5
a 45 46 2
a 46 45 2
a 46 58 6
a 58 46 6
a 46 47 2
a 47 46 2
a 47 59 3
a 59 47 3
a 47 48 8
a 48 47 8
a 48 60 9
a 60 48 9
a 49 61 3
a 61 49 3
a 49 50 7
a 50 49 7
a 50 62 1
a 62 50 1
a 50 51 6
a 51 50 6
a 51 63 9
a 63 51 9
a 51 52 8
a 52 51 8
a 52 64 5
a 64 52 5
a 52 53 6
a 53 52 6
a 53 65 3
a 65 53 3
a 53 54 7
a 54 53 7
a 54 66 4
a 66 54 4
a 54 55 9
a 55 54 9
a 55 67 8
a 67 55 8
a 55 56 3
a 56 55 3
a 56 68 5
a 68 56 5
a 56 57 4
a 57 56 4
a 57 69 8
a 69 57 8
a 57 58 3
a 58 57 3
a 58 70 7
a 70 58 7
a 58 59 1
a 59 58 1
a 59 71 1
a 71 59 1
a 59 60 1
a 60 59 1
a 60 72 1
a 72 60 1
a 61 73 3
a 73 61 3
a 61 62 10
a 62 61 10
a 62 74 2
a 74 62 2
a 62 63 3
a 63 62 3
a 63 75 3
a 75 63 3
a 63 64 8
a 64 63 8
a 64 76 7
a 76 64 7
a 64 65 9
a 65 64 9
a 65 77 7
a 77 65 7
a 65 66 7
a 66 65 7
a 66 78 5
a 78 66 5
a 66 67 5
a 67 66 5
a 67 79 7
a 79 67 7
a 67 68 10
a 68 67 10
a 68 80 7
a 80 68 7
a 68 69 1
a 69 68 1
a 69 81 4
a 81 69 4
a 69 70 2
a 70 69 2
a 70 82 2
a 82 70 2
a 70 71 3
a 71 70 3
a 71 83 1
a 83 71 1
a 71 72 2
a 72 71 2
a 72 84 7
a 84 72 7
a 73 85 3
a 85 73 3
a 73 74 2
a 74 73 2
a 74 86 9
a 86 74 9
a 74 75 8
a 75 74 8
a 75 87 1
a 87 75 1
a 75 76 2
a 76 75 2
a 76 88 3
a 88 76 3
a 76 77 9
a 77 76 9
a 77 89 1
a 89 77 1
a 77 78 1
a 78 77 1
a 78 90 8
a 90 78 8
a 78 79 6
a 79 78 6
a 79 91 9
a 91 79 9
a 79 80 10
a 80 79 10
a 80 92 2
a 92 80 2
a 80 81 4
a 81 80 4
a 81 93 3
a 93 81 3
a 81 82 6
a 82 81 6
a 82 94 9
a 94 82 9
a 82 83 8
a 83 82 8
a 83 95 4
a 95 83 4
a 83 84 5
a 84 83 5
a 84 96 2
a 96 84 2
a 85 97 2
a 97 85 2
a 85 86 3
a 86 85 3
a 86 98 4
a 98 86 4
a 86 87 2
a 87 86 2
a 87 99 2
a 99 87 2
a 87 88 2
a 88 87 2
a 88 100 5
a 100 88 5
a 88 89 3
a 89 88 3
a 89 101 2
a 101 89 2
a 89 90 8
a 90 89 8
a 90 102 9
a 102 90 9
a 90 91 10
a 91 90 10
a 91 103 5
a 103 91 5
a 91 92 9
a 92 91 9
a 92 104 2
a 104 92 2
a 92 93 4
a 93 92 4
a 93 105 6
a 105 93 6
a 93 94 7
a 94 93 7
a 94 106 5
a 106 94 5
a 94 95 7
a 95 94 7
a 95 107 7
a 107 95 7
a 95 96 2
a 96 95 2
a 96 108 5
a 108 96 5
a 97 109 1
a 109 97 1
a 97 98 10
a 98 97 10
a 98 110 10
a 110 98 10
a 98 99 9
a 99 98 9
a 99 111 5
a 111 99 5
a 99 100 9
a 100 99 9
a 100 112 10
a 112 100 10
a 100 101 10
a 101 100 10
a 101 113 8
a 113 101 8
a 101 102 9
a 102 101 9
a 102 114 9
a 114 102 9
a 102 103 6
a 103 102 6
a 103 115 9
a 115 103 9
a 103 104 3
a 104 103 3
a 104 116 6
a 116 104 6
a 104 105 1
a 105 104 1
a 105 117 10
a 117 105 10
a 105 106 9
a 106 105 9
a 106 118 9
a 118 106 9
a 106 107 4
a 107 106 4
a 107 119 4
a 119 107 4
a 107 108 10
a 108 107 10
a 108 120 2
a 120 108 2
a 109 121 8
a 121 109 8
a 109 110 10
a 110 109 10
a 110 122 1
a 122 110 1
a 110 111 7
a 111 110 7
a 111 123 7
a 123 111 7
a 111 112 6
a 112 111 6
a 112 124 2
a 124 112 2
a 112 113 10
a 113 112 10
a 113 125 6
a 125 113 6
a 113 114 2
a 114 113 2
a 114 126 8
a 126 114 8
a 114 115 8
a 115 114 8
a 115 127 6
a 127 115 6
a 115 116 6
a 116 115 6
a 116 128 4
a 128 116 4
a 116 117 3
a 117 116 3
a 117 129 8
a 129 117 8
a 117 118 3
a 118 117 3
a 118 130 3
a 130 118 3
a 118 119 5
a 119 118 5
a 119 131 6
a 131 119 6
a 119 120 3
a 120 119 3
a 120 132 10
a 132 120 10
a 121 133 1
a 133 121 1
a 121 122 3
a 122 121 3
a 122 134 3
a 134 122 3
a 122 123 7
a 123 122 7
a 123 135 1
a 135 123 1
a 123 124 5
a 124 123 5
a 124 136 6
a 136 124 6
a 124 125 4
a 125 124 4
a 125 137 8
a 137 125 8
a 125 126 2
a 126 125 2
a 126 138 6
a 138 126 6
a 126 127 9
a 127 126 9
a 127 139 5
a 139 127 5
a 127 128 10
a 128 127 10
a 128 140 7
a 140 128 7
a 128 129 7
a 129 128 7
a 129 141 3
a 141 129 3
a 129 130 8
a 130 129 8
a 130 142 9
a 142 130 9
a 130 131 1
a 131 130 1
a 131 143 4
a 143 131 4
a 131 132 2
a 132 131 2
a 132 144 1
a 144 132 1
a 133 134 7
a 134 133 7
a 134 135 4
a 135 134 4
a 135 136 4
a 136 135 4
a 136 137 1
a 137 136 1
a 137 138 7
a 138 137 7
a 138 139 9
a 139 138 9
a 139 140 4
a 140 139 4
a 140 141 4
a 141 140 4
a 141 142 10
a 142 141 10
a 142 143 1
a 143 142 1
a 143 144 6
a 144 143 6
